c FILE: i080-135

c SOURCE: From steinlib

c DESCRIPTION: Steinlib instance with 80 nodes and 160 edges.

p edge 80 160
e 1 2
e 1 15
e 1 25
e 1 36
e 1 38
e 1 46
e 1 59
e 1 67
e 1 70
e 2 4
e 2 23
e 2 59
e 2 71
e 2 77
e 3 28
e 3 31
e 4 14
e 4 15
e 4 22
e 4 62
e 5 39
e 5 46
e 5 52
e 6 7
e 6 11
e 6 28
e 6 34
e 6 65
e 7 59
e 7 65
e 8 28
e 8 45
e 8 47
e 9 38
e 9 47
e 10 41
e 10 57
e 11 47
e 11 55
e 11 67
e 11 74
e 12 15
e 13 56
e 13 58
e 14 68
e 15 27
e 15 55
e 15 76
e 16 77
e 16 78
e 17 49
e 17 71
e 17 77
e 18 40
e 18 47
e 18 51
e 19 22
e 19 32
e 19 41
e 20 30
e 20 65
e 21 68
e 21 72
e 21 74
e 22 51
e 22 79
e 23 31
e 24 25
e 24 28
e 24 39
e 24 48
e 24 62
e 24 69
e 25 40
e 25 54
e 25 60
e 25 64
e 25 65
e 26 30
e 26 59
e 26 76
e 27 29
e 27 42
e 27 80
e 28 39
e 28 56
e 28 60
e 28 69
e 29 67
e 29 75
e 30 31
e 30 34
e 30 45
e 30 64
e 31 52
e 31 74
e 32 42
e 32 51
e 32 56
e 32 59
e 32 67
e 32 77
e 33 47
e 33 51
e 33 76
e 34 38
e 34 49
e 34 50
e 34 57
e 35 44
e 35 55
e 35 63
e 35 78
e 36 42
e 36 44
e 37 50
e 37 52
e 37 54
e 37 59
e 37 70
e 38 41
e 38 54
e 38 64
e 39 62
e 41 56
e 42 60
e 43 54
e 43 70
e 44 66
e 46 66
e 49 53
e 52 67
e 52 72
e 52 75
e 53 55
e 53 65
e 53 71
e 54 71
e 54 73
e 55 66
e 55 69
e 55 74
e 57 68
e 60 78
e 61 79
e 63 66
e 63 71
e 65 78
e 67 70
e 67 71
e 67 72
e 67 75
e 68 79
e 68 80
e 69 77
e 70 73
e 71 74
e 72 78
e 75 80
e 76 79
